# Random Circle Problem
param d := 0.05; 
param n := 10; 
param radius := 2.00; 
param v0 := 
1 5.85
2 5.82
3 5.39
4 5.34
5 5.47
6 5.32
7 4.87
8 5.23
9 5.45
10 5.16
;
param cap := 
1 3.44178
2 4.20907
3 3.93548
4 5.45773
5 5.53180
6 6.13468
7 0.96459
8 1.21341
9 2.00757
10 2.48492
;
param x0 := 
1 2.00
2 1.62
3 0.62
4 -0.62
5 -1.62
6 -2.00
7 -1.62
8 -0.62
9 0.62
10 1.62
;
param y0 := 
1 -0.00
2 1.18
3 1.90
4 1.90
5 1.18
6 0.00
7 -1.18
8 -1.90
9 -1.90
10 -1.18
;
